p cnf 7230 17
-3924 -6357 -6493 0
-3894 -6353 -6491 0
-6225 -6347 -6489 0
3924 -6494 0
3894 -6492 0
6225 -6490 0
6493 6494 0
6491 6492 0
6489 6490 0
6357 -6494 0
6353 -6492 0
6347 -6490 0
-3942 -6361 6496 0
6487 6488 0
-6487 -6488 0
6361 -6496 0
3942 -6496 0
